Pd  O  H 
 1.0000000000000000
     8.3098515122991259    0.0000000000000000    0.0000000000000000
     0.0000000000000000    8.3098515122991259    0.0000000000000000
     0.0000000000000000    0.0000000000000000   25.8759523549999990
 Pd  O   H  
  36   1   2
Selective dynamics
Cartesian
  1.3849752520498539  1.3849752520498544 10.0000000000000000   F   F   F
  4.1549257561495621  1.3849752520498544 10.0000000000000000   F   F   F
  6.9248762602492722  1.3849752520498546 10.0000000000000000   F   F   F
  1.3849752520498539  4.1549257561495621 10.0000000000000000   F   F   F
  4.1549257561495621  4.1549257561495629 10.0000000000000000   F   F   F
  6.9248762602492722  4.1549257561495629 10.0000000000000000   F   F   F
  1.3849752520498539  6.9248762602492731 10.0000000000000000   F   F   F
  4.1549257561495621  6.9248762602492731 10.0000000000000000   F   F   F
  6.9248762602492722  6.9248762602492731 10.0000000000000000   F   F   F
 -0.0000000000000004  0.0000000000000007 11.9586507849999997   F   F   F
  2.7699505040997079  0.0000000000000007 11.9586507849999997   F   F   F
  5.5399010081994167  0.0000000000000007 11.9586507849999997   F   F   F
 -0.0000000000000004  2.7699505040997088 11.9586507849999997   F   F   F
  2.7699505040997079  2.7699505040997088 11.9586507849999997   F   F   F
  5.5399010081994167  2.7699505040997088 11.9586507849999997   F   F   F
 -0.0000000000000004  5.5399010081994167 11.9586507849999997   F   F   F
  2.7699505040997079  5.5399010081994167 11.9586507849999997   F   F   F
  5.5399010081994167  5.5399010081994167 11.9586507849999997   F   F   F
  1.3849752520498539  1.3849752520498544 13.9173015699999993   T   T   T
  4.1549257561495621  1.3849752520498544 13.9173015699999993   T   T   T
  6.9248762602492722  1.3849752520498546 13.9173015699999993   T   T   T
  1.3849752520498539  4.1549257561495621 13.9173015699999993   T   T   T
  4.1549257561495621  4.1549257561495629 13.9173015699999993   T   T   T
  6.9248762602492722  4.1549257561495629 13.9173015699999993   T   T   T
  1.3849752520498539  6.9248762602492731 13.9173015699999993   T   T   T
  4.1549257561495621  6.9248762602492731 13.9173015699999993   T   T   T
  6.9248762602492722  6.9248762602492731 13.9173015699999993   T   T   T
  0.0000000000000000  0.0000000000000000 15.8759523549999990   T   T   T
  2.7699505040997079  0.0000000000000000 15.8759523549999990   T   T   T
  5.5399010081994167  0.0000000000000000 15.8759523549999990   T   T   T
  0.0000000000000000  2.7699505040997079 15.8759523549999990   T   T   T
  2.7699505040997079  2.7699505040997079 15.8759523549999990   T   T   T
  5.5399010081994167  2.7699505040997079 15.8759523549999990   T   T   T
  0.0000000000000000  5.5399010081994158 15.8759523549999990   T   T   T
  2.7699505040997079  5.5399010081994158 15.8759523549999990   T   T   T
  5.5399010081994167  5.5399010081994158 15.8759523549999990   T   T   T
  5.5399010081994051  1.3849752520499077 17.3873568512250962   T   T   T
  5.5399010081993874  2.2250198937208134 17.8723568512250957   T   T   T
  5.5399010081993874  0.5449306103790021 17.8723568512250957   T   T   T
